\* Problem: Unknown *\

Minimize
 obj: - 9 x_1 + 880 x_2 + 770 x_3 + 660 x_4 + 470 x_5 + 70 x_6 - 230 x_7
 + 871 x_8 + 490 x_10 + 380 x_11 + 270 x_12 + 80 x_13 - 320 x_14
 - 620 x_15 + 481 x_16 - 1103 x_17 - 1101 x_18 - 1301 x_19 - 1501 x_20
 - 1701 x_21 - 2101 x_22 - 2501 x_23 + 7399 x_24 - 1200 x_25
 - 11110 x_26 - 100 x_27 - 300 x_28 - 500 x_29 - 700 x_30 - 1100 x_31
 - 1500 x_32 + 8400 x_33 - 300 x_34 - 500 x_35 - 700 x_36 - 1100 x_37
 - 1500 x_38 + 8400 x_39 - 300 x_40 - 700 x_41 - 800 x_42 - 1000 x_43
 + 101 x_44 - 400 x_45 - 500 x_46 - 700 x_47 + 401 x_48 - 300 x_49
 - 400 x_50 - 600 x_51 + 501 x_52 - 500 x_53 - 600 x_54 - 800 x_55
 + 301 x_56 - 400 x_57 - 800 x_58 - 900 x_59 - 1100 x_60 + x_61
 - 120 x_62 - 230 x_63 - 420 x_64 - 820 x_65 - 1120 x_66 - 19 x_67
 - 220 x_68 - 330 x_69 - 440 x_70 - 630 x_71 - 1030 x_72 - 1330 x_73
 - 229 x_74 - 1120 x_75 - 1230 x_76 - 1340 x_77 - 1530 x_78 - 1930 x_79
 - 2230 x_80 - 1129 x_81 - 400 x_82 - 800 x_83 - 900 x_84 - 1100 x_85
 + x_86 - 400 x_87 - 700 x_88 + 401 x_89 - 120 x_90 - 310 x_91
 - 710 x_92 - 1010 x_93 + 91 x_94 - 500 x_95 - 800 x_96 + 301 x_97
 - 300 x_98 - 600 x_99 + 501 x_100 - 400 x_101 + 701 x_102 - 320 x_103
 - 430 x_104 - 540 x_105 - 730 x_106 - 1130 x_107 - 1430 x_108
 - 329 x_109 - 500 x_110 + 9400 x_111 - 300 x_112 + 9600 x_113
 - 300 x_114 - 700 x_115 - 1100 x_116 + 8800 x_117 + 9800 x_118
 - 300 x_119 - 700 x_120 - 1100 x_121 + 8800 x_122 - 300 x_123
 - 500 x_124 - 900 x_125 - 1300 x_126 + 8600 x_127 - 500 x_128
 - 900 x_129 + 9000 x_130 - 300 x_131 - 700 x_132 + 9200 x_133
 - 400 x_134 + 9500 x_135 + 9900 x_136 - 400 x_137 - 800 x_138
 + 9100 x_139

Subject To
 r_1: + x_82 + x_57 + x_40 - ~r_1 = 0
 r_2: + x_84 + x_59 + x_54 + x_50 + x_46 + x_42 - ~r_2 = 0
 r_3: + x_106 + x_91 + x_78 + x_71 + x_64 + x_13 + x_5 - ~r_3 = 0
 r_4: + x_107 + x_98 + x_95 + x_92 + x_87 + x_79 + x_72 + x_65 + x_14
 + x_6 - ~r_4 = 0
 r_5: + x_108 + x_101 + x_99 + x_96 + x_93 + x_88 + x_85 + x_80 + x_73
 + x_66 + x_60 + x_55 + x_51 + x_47 + x_43 + x_15 + x_7 - ~r_5 = 0
 r_6: + x_27 + x_18 - ~r_6 = 0
 r_7: + x_34 + x_28 + x_19 - ~r_7 = 0
 r_8: + x_123 + x_35 + x_29 + x_20 - ~r_8 = 0
 r_9: + x_124 + x_119 + x_114 + x_36 + x_30 + x_21 - ~r_9 = 0
 r_10: + x_137 + x_131 + x_128 + x_125 + x_120 + x_115 + x_37 + x_31
 + x_22 - ~r_10 = 0
 r_11: + x_138 + x_134 + x_132 + x_129 + x_126 + x_121 + x_116 + x_112
 + x_110 + x_38 + x_32 + x_23 - ~r_11 = 0
 r_12: + x_104 + x_76 + x_69 + x_62 + x_11 + x_3 - ~r_12 = 0
 r_13: + x_103 + x_75 + x_68 + x_10 + x_2 - ~r_13 = 0
 r_14: + x_83 + x_58 + x_53 + x_49 + x_45 + x_41 - ~r_14 = 0
 r_15: + x_105 + x_90 + x_77 + x_70 + x_63 + x_12 + x_4 - ~r_15 = 0
 r_16: + x_8 + x_7 + x_6 + x_5 + x_4 + x_3 + x_2 + x_1 >= 0
 r_17: + x_25 >= 0
 r_18: + x_16 + x_15 + x_14 + x_13 + x_12 + x_11 + x_10 + x_9 >= 0
 r_19: + x_26 >= 0
 r_20: + x_24 + x_23 + x_22 + x_21 + x_20 + x_19 + x_18 + x_17 >= 0
 r_21: + x_109 + x_102 + x_100 + x_97 + x_94 + x_89 + x_86 + x_81 + x_74
 + x_67 + x_61 + x_56 + x_52 + x_48 + x_44 + x_16 + x_8 >= 0
 r_22: + x_25 = 2110.05939646417
 r_23: + x_26 = 2512.63262299235
 r_24: + x_139 + x_138 + x_133 + x_132 + x_130 + x_129 + x_127 + x_126
 + x_122 + x_121 + x_117 + x_116 + x_111 + x_110 + x_39 + x_38 + x_33
 + x_32 + x_24 + x_23 >= 0
 r_25: + x_139 + x_138 + x_135 + x_134 + x_133 + x_132 + x_130 + x_129
 + x_127 + x_126 + x_122 + x_121 + x_117 + x_116 + x_113 + x_112 + x_111
 + x_110 + x_39 + x_38 + x_33 + x_32 + x_24 + x_23 >= 0
 r_26: + x_127 + x_126 + x_125 + x_124 + x_122 + x_121 + x_120 + x_119
 + x_117 + x_116 + x_115 + x_114 + x_39 + x_38 + x_37 + x_36 + x_33
 + x_32 + x_31 + x_30 + x_24 + x_23 + x_22 + x_21 >= 0
 r_27: + x_139 + x_135 + x_133 + x_130 + x_127 + x_122 + x_118 + x_117
 + x_113 + x_111 + x_39 + x_33 + x_24 >= 0
 r_28: + x_127 + x_126 + x_125 + x_124 + x_123 + x_39 + x_38 + x_37
 + x_36 + x_35 + x_33 + x_32 + x_31 + x_30 + x_29 + x_24 + x_23 + x_22
 + x_21 + x_20 >= 0
 r_29: + x_130 + x_129 + x_128 + x_127 + x_126 + x_125 + x_122 + x_121
 + x_120 + x_117 + x_116 + x_115 + x_39 + x_38 + x_37 + x_33 + x_32
 + x_31 + x_24 + x_23 + x_22 >= 0
 r_30: + x_139 + x_138 + x_137 + x_133 + x_132 + x_131 + x_130 + x_129
 + x_128 + x_127 + x_126 + x_125 + x_122 + x_121 + x_120 + x_117 + x_116
 + x_115 + x_39 + x_38 + x_37 + x_33 + x_32 + x_31 + x_24 + x_23 + x_22
 >= 0
 r_31: + x_139 + x_138 + x_135 + x_134 + x_133 + x_132 + x_130 + x_129
 + x_127 + x_126 + x_122 + x_121 + x_117 + x_116 + x_111 + x_110 + x_39
 + x_38 + x_33 + x_32 + x_24 + x_23 >= 0
 r_32: + x_139 + x_136 + x_135 + x_133 + x_130 + x_127 + x_122 + x_118
 + x_117 + x_113 + x_111 + x_39 + x_33 + x_24 >= 0
 r_33: + x_139 + x_138 + x_137 + x_130 + x_129 + x_128 + x_127 + x_126
 + x_125 + x_122 + x_121 + x_120 + x_117 + x_116 + x_115 + x_39 + x_38
 + x_37 + x_33 + x_32 + x_31 + x_24 + x_23 + x_22 >= 0
 r_34: + x_33 + x_32 + x_31 + x_30 + x_29 + x_28 + x_27 = 45515.52
 r_35: + x_39 + x_38 + x_37 + x_36 + x_35 + x_34 = 98547.84
 r_36: + x_1 = 0
 r_37: + x_9 = 0
 r_38: + x_17 = 0
 r_39: + x_44 + x_43 + x_42 + x_41 + x_40 = 56620.944
 r_40: + x_48 + x_47 + x_46 + x_45 = 141552.576
 r_41: + x_52 + x_51 + x_50 + x_49 = 141552.576
 r_42: + x_56 + x_55 + x_54 + x_53 = 226484.64
 r_43: + x_61 + x_60 + x_59 + x_58 + x_57 = 225959.328
 r_44: + x_67 + x_66 + x_65 + x_64 + x_63 + x_62 = 209488.032
 r_45: + x_74 + x_73 + x_72 + x_71 + x_70 + x_69 + x_68 = 31046.112
 r_46: + x_81 + x_80 + x_79 + x_78 + x_77 + x_76 + x_75 = 110869.344
 r_47: + x_86 + x_85 + x_84 + x_83 + x_82 = 38841.6384
 r_48: + x_89 + x_88 + x_87 = 6824.61504
 r_49: + x_94 + x_93 + x_92 + x_91 + x_90 = 7263.1296
 r_50: + x_97 + x_96 + x_95 = 2905.26048
 r_51: + x_100 + x_99 + x_98 = 2905.26048
 r_52: + x_102 + x_101 = 1452.62592
 r_53: + x_109 + x_108 + x_107 + x_106 + x_105 + x_104 + x_103
 = 269744.256
 r_54: + x_111 + x_110 = 6362.48736
 r_55: + x_113 + x_112 = 6362.48736
 r_56: + x_117 + x_116 + x_115 + x_114 = 24933.312
 r_57: + x_118 = 214465.536
 r_58: + x_122 + x_121 + x_120 + x_119 = 33408.0288
 r_59: + x_127 + x_126 + x_125 + x_124 + x_123 = 19616.0832
 r_60: + x_130 + x_129 + x_128 = 17346.528
 r_61: + x_133 + x_132 + x_131 = 6892.32672
 r_62: + x_135 + x_134 = 102929.184
 r_63: + x_136 = 91508.832
 r_64: + x_139 + x_138 + x_137 = 20582.208
 r_65: + x_109 + x_108 + x_107 + x_106 + x_105 + x_104 + x_103 + x_74
 + x_73 + x_72 + x_71 + x_70 + x_69 + x_68 + x_8 + x_7 + x_6 + x_5 + x_4
 + x_3 + x_2 >= 0
 r_66: + x_109 + x_108 + x_107 + x_106 + x_105 + x_104 + x_103 + x_81
 + x_80 + x_79 + x_78 + x_77 + x_76 + x_75 + x_74 + x_73 + x_72 + x_71
 + x_70 + x_69 + x_68 + x_16 + x_15 + x_14 + x_13 + x_12 + x_11 + x_10
 + x_8 + x_7 + x_6 + x_5 + x_4 + x_3 + x_2 >= 0
 r_67: + x_109 + x_108 + x_102 + x_101 + x_100 + x_99 + x_97 + x_96
 + x_94 + x_93 + x_89 + x_88 + x_86 + x_85 + x_81 + x_80 + x_74 + x_73
 + x_67 + x_66 + x_61 + x_60 + x_56 + x_55 + x_52 + x_51 + x_48 + x_47
 + x_44 + x_43 + x_16 + x_15 + x_8 + x_7 >= 0
 r_68: + x_139 + x_136 + x_135 + x_133 + x_130 + x_127 + x_122 + x_118
 + x_117 + x_113 + x_111 + x_39 + x_33 + x_24 >= 0
 r_69: + x_39 + x_38 + x_37 + x_36 + x_35 + x_34 + x_33 + x_32 + x_31
 + x_30 + x_29 + x_28 + x_24 + x_23 + x_22 + x_21 + x_20 + x_19 >= 0
 r_70: + x_86 + x_85 + x_84 + x_83 + x_82 + x_61 + x_60 + x_59 + x_58
 + x_57 + x_44 + x_43 + x_42 + x_41 + x_40 >= 0
 r_71: + x_86 + x_85 + x_84 + x_83 + x_61 + x_60 + x_59 + x_58 + x_56
 + x_55 + x_54 + x_53 + x_48 + x_47 + x_46 + x_45 + x_44 + x_43 + x_42
 + x_41 >= 0
 r_72: + x_86 + x_85 + x_84 + x_83 + x_61 + x_60 + x_59 + x_58 + x_56
 + x_55 + x_54 + x_53 + x_52 + x_51 + x_50 + x_49 + x_48 + x_47 + x_46
 + x_45 + x_44 + x_43 + x_42 + x_41 >= 0
 r_73: + x_86 + x_85 + x_84 + x_83 + x_61 + x_60 + x_59 + x_58 + x_56
 + x_55 + x_54 + x_53 + x_44 + x_43 + x_42 + x_41 >= 0
 r_74: + x_86 + x_85 + x_84 + x_83 + x_82 + x_61 + x_60 + x_59 + x_58
 + x_57 >= 0
 r_75: + x_109 + x_108 + x_107 + x_106 + x_105 + x_104 + x_81 + x_80
 + x_79 + x_78 + x_77 + x_76 + x_74 + x_73 + x_72 + x_71 + x_70 + x_69
 + x_67 + x_66 + x_65 + x_64 + x_63 + x_62 + x_16 + x_15 + x_14 + x_13
 + x_12 + x_11 + x_8 + x_7 + x_6 + x_5 + x_4 + x_3 >= 0
 r_76: + x_109 + x_108 + x_107 + x_106 + x_105 + x_104 + x_103 >= 0
 r_77: + x_109 + x_108 + x_107 + x_97 + x_96 + x_95 + x_94 + x_93 + x_92
 + x_89 + x_88 + x_87 + x_81 + x_80 + x_79 + x_74 + x_73 + x_72 + x_67
 + x_66 + x_65 + x_16 + x_15 + x_14 + x_8 + x_7 + x_6 >= 0
 r_78: + x_109 + x_108 + x_107 + x_106 + x_105 + x_94 + x_93 + x_92
 + x_91 + x_90 + x_81 + x_80 + x_79 + x_78 + x_77 + x_74 + x_73 + x_72
 + x_71 + x_70 + x_67 + x_66 + x_65 + x_64 + x_63 + x_16 + x_15 + x_14
 + x_13 + x_12 + x_8 + x_7 + x_6 + x_5 + x_4 >= 0
 r_79: + x_109 + x_108 + x_107 + x_97 + x_96 + x_95 + x_94 + x_93 + x_92
 + x_81 + x_80 + x_79 + x_74 + x_73 + x_72 + x_67 + x_66 + x_65 + x_16
 + x_15 + x_14 + x_8 + x_7 + x_6 >= 0
 r_80: + x_109 + x_108 + x_107 + x_100 + x_99 + x_98 + x_97 + x_96
 + x_95 + x_94 + x_93 + x_92 + x_89 + x_88 + x_87 + x_81 + x_80 + x_79
 + x_74 + x_73 + x_72 + x_67 + x_66 + x_65 + x_16 + x_15 + x_14 + x_8
 + x_7 + x_6 >= 0
 r_81: + x_109 + x_108 + x_102 + x_101 + x_100 + x_99 + x_97 + x_96
 + x_94 + x_93 + x_89 + x_88 + x_81 + x_80 + x_74 + x_73 + x_67 + x_66
 + x_16 + x_15 + x_8 + x_7 >= 0
 r_82: + x_86 + x_85 + x_84 + x_83 + x_82 + x_61 + x_60 + x_59 + x_58
 + x_57 + x_44 + x_43 + x_42 + x_41 + x_40 >= 0
 r_83: + x_86 + x_85 + x_84 + x_61 + x_60 + x_59 + x_56 + x_55 + x_54
 + x_52 + x_51 + x_50 + x_48 + x_47 + x_46 + x_44 + x_43 + x_42 >= 0
 r_84: + x_109 + x_108 + x_107 + x_106 + x_94 + x_93 + x_92 + x_91
 + x_81 + x_80 + x_79 + x_78 + x_74 + x_73 + x_72 + x_71 + x_67 + x_66
 + x_65 + x_64 + x_16 + x_15 + x_14 + x_13 + x_8 + x_7 + x_6 + x_5 >= 0
 r_85: + x_109 + x_108 + x_107 + x_100 + x_99 + x_98 + x_97 + x_96
 + x_95 + x_94 + x_93 + x_92 + x_89 + x_88 + x_87 + x_81 + x_80 + x_79
 + x_74 + x_73 + x_72 + x_67 + x_66 + x_65 + x_16 + x_15 + x_14 + x_8
 + x_7 + x_6 >= 0
 r_86: + x_109 + x_108 + x_102 + x_101 + x_100 + x_99 + x_97 + x_96
 + x_94 + x_93 + x_89 + x_88 + x_86 + x_85 + x_81 + x_80 + x_74 + x_73
 + x_67 + x_66 + x_61 + x_60 + x_56 + x_55 + x_52 + x_51 + x_48 + x_47
 + x_44 + x_43 + x_16 + x_15 + x_8 + x_7 >= 0
 r_87: + x_33 + x_32 + x_31 + x_30 + x_29 + x_28 + x_27 + x_24 + x_23
 + x_22 + x_21 + x_20 + x_19 + x_18 >= 0
 r_88: + x_39 + x_38 + x_37 + x_36 + x_35 + x_34 + x_33 + x_32 + x_31
 + x_30 + x_29 + x_28 + x_24 + x_23 + x_22 + x_21 + x_20 + x_19 >= 0
 r_89: + x_127 + x_126 + x_125 + x_124 + x_123 + x_39 + x_38 + x_37
 + x_36 + x_35 + x_33 + x_32 + x_31 + x_30 + x_29 + x_24 + x_23 + x_22
 + x_21 + x_20 >= 0
 r_90: + x_127 + x_126 + x_125 + x_124 + x_122 + x_121 + x_120 + x_119
 + x_117 + x_116 + x_115 + x_114 + x_39 + x_38 + x_37 + x_36 + x_33
 + x_32 + x_31 + x_30 + x_24 + x_23 + x_22 + x_21 >= 0
 r_91: + x_139 + x_138 + x_137 + x_133 + x_132 + x_131 + x_130 + x_129
 + x_128 + x_127 + x_126 + x_125 + x_122 + x_121 + x_120 + x_117 + x_116
 + x_115 + x_39 + x_38 + x_37 + x_33 + x_32 + x_31 + x_24 + x_23 + x_22
 >= 0
 r_92: + x_139 + x_138 + x_135 + x_134 + x_133 + x_132 + x_130 + x_129
 + x_127 + x_126 + x_122 + x_121 + x_117 + x_116 + x_113 + x_112 + x_111
 + x_110 + x_39 + x_38 + x_33 + x_32 + x_24 + x_23 >= 0
 r_93: + x_109 + x_108 + x_107 + x_106 + x_105 + x_104 + x_81 + x_80
 + x_79 + x_78 + x_77 + x_76 + x_74 + x_73 + x_72 + x_71 + x_70 + x_69
 + x_67 + x_66 + x_65 + x_64 + x_63 + x_62 + x_16 + x_15 + x_14 + x_13
 + x_12 + x_11 + x_8 + x_7 + x_6 + x_5 + x_4 + x_3 >= 0
 r_94: + x_109 + x_108 + x_107 + x_106 + x_105 + x_104 + x_103 + x_81
 + x_80 + x_79 + x_78 + x_77 + x_76 + x_75 + x_74 + x_73 + x_72 + x_71
 + x_70 + x_69 + x_68 + x_16 + x_15 + x_14 + x_13 + x_12 + x_11 + x_10
 + x_8 + x_7 + x_6 + x_5 + x_4 + x_3 + x_2 >= 0
 r_95: + x_109 + x_108 + x_107 + x_106 + x_105 + x_94 + x_93 + x_92
 + x_91 + x_90 + x_81 + x_80 + x_79 + x_78 + x_77 + x_74 + x_73 + x_72
 + x_71 + x_70 + x_67 + x_66 + x_65 + x_64 + x_63 + x_16 + x_15 + x_14
 + x_13 + x_12 + x_8 + x_7 + x_6 + x_5 + x_4 >= 0
 r_96: + x_86 + x_85 + x_84 + x_83 + x_61 + x_60 + x_59 + x_58 + x_56
 + x_55 + x_54 + x_53 + x_52 + x_51 + x_50 + x_49 + x_48 + x_47 + x_46
 + x_45 + x_44 + x_43 + x_42 + x_41 >= 0
 r_97: + x_8 + x_7 + x_6 + x_5 + x_4 + x_3 + x_2 - ~r_97 = 0
 r_98: + x_16 + x_15 + x_14 + x_13 + x_12 + x_11 + x_10 - ~r_98 = 0
 r_99: + x_33 + x_32 + x_31 + x_30 + x_29 + x_28 + x_27 + x_24 + x_23
 + x_22 + x_21 + x_20 + x_19 + x_18 - ~r_99 = 0
 r_100: - x_8 - x_7 - x_6 - x_5 - x_4 - x_3 - x_2 - x_1 + x_25 - ~r_100
 = -112903.225806452
 r_101: - x_16 - x_15 - x_14 - x_13 - x_12 - x_11 - x_10 - x_9 + x_26
 - ~r_101 = -241757.325233862
 r_102: - x_24 - x_23 - x_22 - x_21 - x_20 - x_19 - x_18 - x_17 + x_109
 + x_102 + x_100 + x_97 + x_94 + x_89 + x_86 + x_81 + x_74 + x_67 + x_61
 + x_56 + x_52 + x_48 + x_44 + x_16 + x_8 - ~r_102 = 0

Bounds
 0 <= ~r_1 <= 65729.7504
 0 <= ~r_2 <= 35769.6
 0 <= ~r_3 <= 150116.544
 0 <= ~r_4 <= 20654.0928
 0 <= ~r_5 <= 13819.5072
 0 <= ~r_6 <= 40747.1904
 0 <= ~r_7 <= 46751.6448
 0 <= ~r_8 <= 300722.976
 0 <= ~r_9 <= 34438.5216
 0 <= ~r_10 <= 47358.3456
 0 <= ~r_11 <= 131910.336
 0 <= ~r_12 <= 6321.13632
 0 <= ~r_13 <= 10033.5456
 0 <= ~r_14 <= 275.92272
 0 <= ~r_15 <= 33.4451808
 0 <= ~r_97 <= 100000
 0 <= ~r_98 <= 2200
 0 <= ~r_99 <= 13200000
 0 <= ~r_100 <= 112903.225806452
 0 <= ~r_101 <= 241935.483870968
 0 <= ~r_102 <= 5480000

End
